ACTORES = {Actor1, Actor2, Actor3} ;

Escenas = [| 1,1,0,0,0,0,1,0,10
           | 0,1,1,1,0,1,0,1,20
           | 0,0,0,0,1,1,1,1,15|]; 
           
Duracion = [2,1,1,1,3,4,3,1];

Disponibilidad =[|Actor1, 15
                 |Actor2, 18
                 |Actor3, 13|];

Evitar =[|Actor1, Actor3|];
         

% ----------
% 4 3 8 6 2 7 5 1 430 7
% ----------
% ==========
% Finished in 654msec.

